p cnf 13 28
13 12 10 0
-13 12 -9 0
13 -12 -6 0
-13 12 -3 0
-13 -7 3 0
12 -11 -4 0
12 -11 3 0
12 10 7 0
12 -8 -2 0
-12 5 -4 0
12 4 2 0
-11 -10 -6 0
11 -8 5 0
11 -7 -2 0
-11 -7 -1 0
-11 -4 1 0
10 -9 3 0
10 -6 -5 0
9 -7 -5 0
-9 7 3 0
9 5 -3 0
9 -3 -1 0
9 2 1 0
-8 7 -4 0
-7 -5 2 0
-7 4 1 0
6 -5 -4 0
-4 3 -1 0
